multiobj/instances/reallike/Ter-rl-5-2-0.80-0.5-2.in
5 2
0 46 118 40 96 
46 0 88 10 53 
118 88 0 85 53 
40 10 85 0 56 
96 53 53 56 0 
0 0 0 1522 12 
0 0 0 3297 0 
0 0 0 1 0 
1522 3297 1 0 143 
12 0 0 143 0 
0 0 0 0 24 
0 0 10 0 0 
0 10 0 97 33 
0 0 97 0 7 
24 0 33 7 0 
