multiobj/solutions/reallike/Ter-rl-5-2-0.80-0.5-2.out
9 2
0 1 2 3 4 
206190 27140 
0 1 4 3 2 
214954 22276 
0 3 4 1 2 
234070 21796 
4 3 0 1 2 
253804 21288 
4 1 0 3 2 
262066 20202 
2 1 0 3 4 
342048 18344 
4 0 1 3 2 
459826 12402 
4 0 3 1 2 
491116 12126 
2 0 1 3 4 
539808 9686 
